Maximize
  - 3.9506346157662 edge_0_1_0_0 - 4.4181952124752 edge_0_2_0_0
   - 3.1195676223644 edge_0_3_0_0 - 2.267234344152 edge_0_4_0_0
   - 3.0115587469762 edge_0_6_0_0 - 4.8563508091086 edge_0_7_0_0
   - 3.8739617535542 edge_0_8_0_0 - 1.2207251238528 edge_0_9_0_0
   - 3.3790260894096 edge_0_11_0_0 - 3.881562274437 edge_0_15_0_0
   - 0.1920104374856812 edge_1_2_0_0 - 0.1648389001964679 edge_1_3_0_0
   - 0.2144723706935922 edge_2_1_0_0 + 1.476020808450238 edge_2_3_0_0
   - 0.6755702734732371 edge_2_4_0_0 + 0.2639464222909352 edge_2_5_0_0
   + 0.782127663436644 edge_2_6_0_0 - 1.129849633403162 edge_2_8_0_0
   + 0.5740305062045773 edge_2_9_0_0 - 0.1628733531352017 edge_3_1_0_0
   + 2.085057453840634 edge_3_2_0_0 - 0.0482287 edge_3_4_0_0
   + 0.1294917172522665 edge_3_5_0_0 + 0.1694514835752047 edge_3_6_0_0
   - 0.8018279512117243 edge_3_8_0_0 + 0.5557753284186974 edge_3_9_0_0
   - 0.4042036840370246 edge_3_11_0_0 + 0.0211197739482457 edge_3_12_0_0
   + 0.00797439609758322 edge_3_13_0_0 - 0.342918051035001 edge_3_15_0_0
   - 1.53286661433796 edge_3_18_0_0 + 2.033891796063729 edge_3_19_0_0
   + 1.60399831698874 edge_4_1_0_0 + 0.6866865035328261 edge_4_2_0_0
   + 1.510845418390552 edge_4_3_0_0 + 0.9644785798481028 edge_4_5_0_0
   + 2.847053060004162 edge_4_6_0_0 + 0.1071769451172469 edge_4_7_0_0
   + 0.0371947233768998 edge_4_8_0_0 + 0.8638107178427177 edge_4_9_0_0
   + 0.1143569955165706 edge_4_10_0_0 + 0.1855152514863075 edge_4_11_0_0
   + 1.28271265572594 edge_4_12_0_0 + 1.05797857320744 edge_4_13_0_0
   - 0.0104759436592963 edge_4_14_0_0 + 0.7583274059289776 edge_4_15_0_0
   - 0.1244475198268848 edge_4_16_0_0 + 0.5803036810753186 edge_4_18_0_0
   + 2.795346496744095 edge_4_19_0_0 - 0.479956690665768 edge_5_2_0_0
   - 0.4490329586940217 edge_5_3_0_0 + 0.6833068234673458 edge_5_6_0_0
   - 0.2435531845358731 edge_5_13_0_0 - 0.6082563787167538 edge_5_15_0_0
   - 0.498508115769368 edge_6_1_0_0 + 0.1932659640734342 edge_6_2_0_0
   + 0.6122141484286299 edge_6_3_0_0 + 0.4638675578301805 edge_6_4_0_0
   + 3.133042871677576 edge_6_5_0_0 - 0.7687366760174634 edge_6_8_0_0
   + 0.6295172104234708 edge_6_9_0_0 - 0.1325386337005779 edge_6_11_0_0
   + 0.2967918159437689 edge_6_12_0_0 + 0.2531035365106977 edge_6_13_0_0
   - 0.1557461767490493 edge_6_15_0_0 - 1.246372714087471 edge_6_18_0_0
   + 0.8748689364729209 edge_6_19_0_0 - 0.639370063557809 edge_7_3_0_0
   - 1.528883639161246 edge_7_4_0_0 + 1.109380728027313 edge_7_8_0_0
   - 0.00106802354416537 edge_7_9_0_0 + 0.0106996838564472 edge_7_11_0_0
   + 0.0208597388908364 edge_8_3_0_0 - 0.3041686001426397 edge_8_4_0_0
   - 0.6478564349559192 edge_8_5_0_0 - 0.0524865476059098 edge_8_6_0_0
   + 3.787366912312323 edge_8_7_0_0 + 1.264710799770796 edge_8_9_0_0
   + 0.0848077491425352 edge_8_10_0_0 + 0.2177655446739336 edge_8_11_0_0
   + 0.9547033397811605 edge_8_12_0_0 + 0.9764288890994209 edge_8_13_0_0
   + 0.4492670776785775 edge_8_14_0_0 + 0.4526759082826677 edge_8_15_0_0
   - 1.251241320380623 edge_8_16_0_0 - 0.51262658551741 edge_8_18_0_0
   + 1.593081445111652 edge_8_19_0_0 + 0.4498890457027623 edge_9_1_0_0
   + 0.8663496455900305 edge_9_2_0_0 + 2.051495405834198 edge_9_3_0_0
   + 0.5619790776037227 edge_9_4_0_0 + 0.6531367765502432 edge_9_5_0_0
   + 1.357820640015901 edge_9_6_0_0 + 0.977261487023295 edge_9_7_0_0
   + 1.565462267253112 edge_9_8_0_0 - 0.3560010465062511 edge_9_10_0_0
   - 0.0577413027570599 edge_9_11_0_0 + 1.254744070269937 edge_9_12_0_0
   + 2.118341151284548 edge_9_13_0_0 - 2.029663841900476 edge_9_14_0_0
   + 1.497991123394513 edge_9_15_0_0 - 1.301680606579049 edge_9_18_0_0
   + 2.55592116069582 edge_9_19_0_0 - 0.7020615523445441 edge_10_4_0_0
   + 0.2280454799677804 edge_10_8_0_0 + 0.1466251995813392 edge_10_11_0_0
   + 0.3905381466921047 edge_10_12_0_0 + 0.5655422014664124 edge_10_13_0_0
   - 0.6409432000532385 edge_10_14_0_0 - 0.1694877814834055 edge_10_15_0_0
   - 0.4534172704648338 edge_10_16_0_0 - 0.8261997846602499 edge_10_18_0_0
   - 0.4525349387774507 edge_11_1_0_0 + 0.0366404102413159 edge_11_2_0_0
   - 0.0691047018451545 edge_11_3_0_0 - 0.2821499643441304 edge_11_4_0_0
   - 0.1300966948871083 edge_11_5_0_0 - 0.4336462642731178 edge_11_6_0_0
   - 0.309139477183112 edge_11_7_0_0 + 0.3926430700106698 edge_11_8_0_0
   - 0.1333638644837457 edge_11_9_0_0 - 0.5049332137964976 edge_11_10_0_0
   - 0.291316635431962 edge_11_12_0_0 + 0.206323595227762 edge_11_13_0_0
   + 0.0471903622641987 edge_11_15_0_0 - 0.9359747068504 edge_11_18_0_0
   + 0.1891083424104916 edge_11_19_0_0 - 0.7592874954982621 edge_12_6_0_0
   - 0.4861798835189879 edge_12_10_0_0 + 0.2467362849033474 edge_12_13_0_0
   + 0.042684543485189 edge_12_14_0_0 - 1.109598300179585 edge_13_10_0_0
   - 0.1520155648959821 edge_13_12_0_0 + 0.3484965261813943 edge_13_14_0_0
   + 0.0991816242326744 edge_13_15_0_0 + 0.0536629107712454 edge_13_16_0_0
   - 0.5947178131912999 edge_13_18_0_0 - 0.7731340800449651 edge_14_10_0_0
   - 0.6400637562788219 edge_14_16_0_0 - 1.0578747863319 edge_14_18_0_0
   - 1.465405685139388 edge_15_1_0_0 - 1.600671141674433 edge_15_2_0_0
   + 0.0858139491823448 edge_15_3_0_0 - 0.8608101789358364 edge_15_4_0_0
   - 0.6870217797940416 edge_15_5_0_0 - 0.7672525810565112 edge_15_6_0_0
   - 0.0657744796732408 edge_15_7_0_0 + 0.6759311794408298 edge_15_8_0_0
   - 0.8046165112755655 edge_15_9_0_0 - 0.4350603403990129 edge_15_10_0_0
   + 0.1838613667232895 edge_15_11_0_0 + 0.0930876152164865 edge_15_12_0_0
   + 0.3006269898169641 edge_15_13_0_0 + 2.343264629238161 edge_15_14_0_0
   + 0.5716913041480098 edge_15_16_0_0 + 0.7004273538487301 edge_15_17_0_0
   + 2.819390536142912 edge_15_18_0_0 + 2.762973669806575 edge_15_19_0_0
   - 0.7815895227452974 edge_16_14_0_0 + 0.6266424597751772 edge_16_17_0_0
   + 1.437794550225 edge_16_18_0_0 - 0.0881146648132589 edge_17_16_0_0
   - 0.2777848045655262 edge_18_3_0_0 - 1.345674791292894 edge_18_4_0_0
   - 1.1819006633478 edge_18_6_0_0 - 0.605267809195 edge_18_7_0_0
   - 0.77927832958178 edge_18_8_0_0 - 1.185654535216545 edge_18_9_0_0
   - 0.7421063419363999 edge_18_10_0_0 - 0.46325637465748 edge_18_12_0_0
   - 0.5654424153322 edge_18_13_0_0 + 0.85926351539922 edge_18_14_0_0
   + 0.7277326548530501 edge_18_15_0_0 + 3.234145286295 edge_18_16_0_0
   + 3.9280540915782 edge_18_17_0_0 + 1.22799918952 edge_18_19_0_0
Subject To
 one_parent_1: edge_0_1_0_0 + edge_2_1_0_0 + edge_3_1_0_0 + edge_4_1_0_0
   + edge_6_1_0_0 + edge_9_1_0_0 + edge_11_1_0_0 + edge_15_1_0_0 = 1
 consume_one_flow_unit_1: flow_0_1_0_0 - flow_1_2_0_0 - flow_1_3_0_0
   + flow_2_1_0_0 + flow_3_1_0_0 + flow_4_1_0_0 + flow_6_1_0_0
   + flow_9_1_0_0 + flow_11_1_0_0 + flow_15_1_0_0 = 1
 one_parent_2: edge_0_2_0_0 + edge_1_2_0_0 + edge_3_2_0_0 + edge_4_2_0_0
   + edge_5_2_0_0 + edge_6_2_0_0 + edge_9_2_0_0 + edge_11_2_0_0
   + edge_15_2_0_0 = 1
 consume_one_flow_unit_2: flow_0_2_0_0 + flow_1_2_0_0 - flow_2_1_0_0
   - flow_2_3_0_0 - flow_2_4_0_0 - flow_2_5_0_0 - flow_2_6_0_0
   - flow_2_8_0_0 - flow_2_9_0_0 + flow_3_2_0_0 + flow_4_2_0_0
   + flow_5_2_0_0 + flow_6_2_0_0 + flow_9_2_0_0 + flow_11_2_0_0
   + flow_15_2_0_0 = 1
 one_parent_3: edge_0_3_0_0 + edge_1_3_0_0 + edge_2_3_0_0 + edge_4_3_0_0
   + edge_5_3_0_0 + edge_6_3_0_0 + edge_7_3_0_0 + edge_8_3_0_0
   + edge_9_3_0_0 + edge_11_3_0_0 + edge_15_3_0_0 + edge_18_3_0_0 = 1
 consume_one_flow_unit_3: flow_0_3_0_0 + flow_1_3_0_0 + flow_2_3_0_0
   - flow_3_1_0_0 - flow_3_2_0_0 - flow_3_4_0_0 - flow_3_5_0_0
   - flow_3_6_0_0 - flow_3_8_0_0 - flow_3_9_0_0 - flow_3_11_0_0
   - flow_3_12_0_0 - flow_3_13_0_0 - flow_3_15_0_0 - flow_3_18_0_0
   - flow_3_19_0_0 + flow_4_3_0_0 + flow_5_3_0_0 + flow_6_3_0_0
   + flow_7_3_0_0 + flow_8_3_0_0 + flow_9_3_0_0 + flow_11_3_0_0
   + flow_15_3_0_0 + flow_18_3_0_0 = 1
 one_parent_4: edge_0_4_0_0 + edge_2_4_0_0 + edge_3_4_0_0 + edge_6_4_0_0
   + edge_7_4_0_0 + edge_8_4_0_0 + edge_9_4_0_0 + edge_10_4_0_0
   + edge_11_4_0_0 + edge_15_4_0_0 + edge_18_4_0_0 = 1
 consume_one_flow_unit_4: flow_0_4_0_0 + flow_2_4_0_0 + flow_3_4_0_0
   - flow_4_1_0_0 - flow_4_2_0_0 - flow_4_3_0_0 - flow_4_5_0_0
   - flow_4_6_0_0 - flow_4_7_0_0 - flow_4_8_0_0 - flow_4_9_0_0
   - flow_4_10_0_0 - flow_4_11_0_0 - flow_4_12_0_0 - flow_4_13_0_0
   - flow_4_14_0_0 - flow_4_15_0_0 - flow_4_16_0_0 - flow_4_18_0_0
   - flow_4_19_0_0 + flow_6_4_0_0 + flow_7_4_0_0 + flow_8_4_0_0
   + flow_9_4_0_0 + flow_10_4_0_0 + flow_11_4_0_0 + flow_15_4_0_0
   + flow_18_4_0_0 = 1
 one_parent_5: edge_2_5_0_0 + edge_3_5_0_0 + edge_4_5_0_0 + edge_6_5_0_0
   + edge_8_5_0_0 + edge_9_5_0_0 + edge_11_5_0_0 + edge_15_5_0_0 = 1
 consume_one_flow_unit_5: flow_2_5_0_0 + flow_3_5_0_0 + flow_4_5_0_0
   - flow_5_2_0_0 - flow_5_3_0_0 - flow_5_6_0_0 - flow_5_13_0_0
   - flow_5_15_0_0 + flow_6_5_0_0 + flow_8_5_0_0 + flow_9_5_0_0
   + flow_11_5_0_0 + flow_15_5_0_0 = 1
 one_parent_6: edge_0_6_0_0 + edge_2_6_0_0 + edge_3_6_0_0 + edge_4_6_0_0
   + edge_5_6_0_0 + edge_8_6_0_0 + edge_9_6_0_0 + edge_11_6_0_0
   + edge_12_6_0_0 + edge_15_6_0_0 + edge_18_6_0_0 = 1
 consume_one_flow_unit_6: flow_0_6_0_0 + flow_2_6_0_0 + flow_3_6_0_0
   + flow_4_6_0_0 + flow_5_6_0_0 - flow_6_1_0_0 - flow_6_2_0_0
   - flow_6_3_0_0 - flow_6_4_0_0 - flow_6_5_0_0 - flow_6_8_0_0
   - flow_6_9_0_0 - flow_6_11_0_0 - flow_6_12_0_0 - flow_6_13_0_0
   - flow_6_15_0_0 - flow_6_18_0_0 - flow_6_19_0_0 + flow_8_6_0_0
   + flow_9_6_0_0 + flow_11_6_0_0 + flow_12_6_0_0 + flow_15_6_0_0
   + flow_18_6_0_0 = 1
 one_parent_7: edge_0_7_0_0 + edge_4_7_0_0 + edge_8_7_0_0 + edge_9_7_0_0
   + edge_11_7_0_0 + edge_15_7_0_0 + edge_18_7_0_0 = 1
 consume_one_flow_unit_7: flow_0_7_0_0 + flow_4_7_0_0 - flow_7_3_0_0
   - flow_7_4_0_0 - flow_7_8_0_0 - flow_7_9_0_0 - flow_7_11_0_0
   + flow_8_7_0_0 + flow_9_7_0_0 + flow_11_7_0_0 + flow_15_7_0_0
   + flow_18_7_0_0 = 1
 one_parent_8: edge_0_8_0_0 + edge_2_8_0_0 + edge_3_8_0_0 + edge_4_8_0_0
   + edge_6_8_0_0 + edge_7_8_0_0 + edge_9_8_0_0 + edge_10_8_0_0
   + edge_11_8_0_0 + edge_15_8_0_0 + edge_18_8_0_0 = 1
 consume_one_flow_unit_8: flow_0_8_0_0 + flow_2_8_0_0 + flow_3_8_0_0
   + flow_4_8_0_0 + flow_6_8_0_0 + flow_7_8_0_0 - flow_8_3_0_0
   - flow_8_4_0_0 - flow_8_5_0_0 - flow_8_6_0_0 - flow_8_7_0_0
   - flow_8_9_0_0 - flow_8_10_0_0 - flow_8_11_0_0 - flow_8_12_0_0
   - flow_8_13_0_0 - flow_8_14_0_0 - flow_8_15_0_0 - flow_8_16_0_0
   - flow_8_18_0_0 - flow_8_19_0_0 + flow_9_8_0_0 + flow_10_8_0_0
   + flow_11_8_0_0 + flow_15_8_0_0 + flow_18_8_0_0 = 1
 one_parent_9: edge_0_9_0_0 + edge_2_9_0_0 + edge_3_9_0_0 + edge_4_9_0_0
   + edge_6_9_0_0 + edge_7_9_0_0 + edge_8_9_0_0 + edge_11_9_0_0
   + edge_15_9_0_0 + edge_18_9_0_0 = 1
 consume_one_flow_unit_9: flow_0_9_0_0 + flow_2_9_0_0 + flow_3_9_0_0
   + flow_4_9_0_0 + flow_6_9_0_0 + flow_7_9_0_0 + flow_8_9_0_0
   - flow_9_1_0_0 - flow_9_2_0_0 - flow_9_3_0_0 - flow_9_4_0_0
   - flow_9_5_0_0 - flow_9_6_0_0 - flow_9_7_0_0 - flow_9_8_0_0
   - flow_9_10_0_0 - flow_9_11_0_0 - flow_9_12_0_0 - flow_9_13_0_0
   - flow_9_14_0_0 - flow_9_15_0_0 - flow_9_18_0_0 - flow_9_19_0_0
   + flow_11_9_0_0 + flow_15_9_0_0 + flow_18_9_0_0 = 1
 one_parent_10: edge_4_10_0_0 + edge_8_10_0_0 + edge_9_10_0_0
   + edge_11_10_0_0 + edge_12_10_0_0 + edge_13_10_0_0 + edge_14_10_0_0
   + edge_15_10_0_0 + edge_18_10_0_0 = 1
 consume_one_flow_unit_10: flow_4_10_0_0 + flow_8_10_0_0 + flow_9_10_0_0
   - flow_10_4_0_0 - flow_10_8_0_0 - flow_10_11_0_0 - flow_10_12_0_0
   - flow_10_13_0_0 - flow_10_14_0_0 - flow_10_15_0_0 - flow_10_16_0_0
   - flow_10_18_0_0 + flow_11_10_0_0 + flow_12_10_0_0 + flow_13_10_0_0
   + flow_14_10_0_0 + flow_15_10_0_0 + flow_18_10_0_0 = 1
 one_parent_11: edge_0_11_0_0 + edge_3_11_0_0 + edge_4_11_0_0
   + edge_6_11_0_0 + edge_7_11_0_0 + edge_8_11_0_0 + edge_9_11_0_0
   + edge_10_11_0_0 + edge_15_11_0_0 = 1
 consume_one_flow_unit_11: flow_0_11_0_0 + flow_3_11_0_0 + flow_4_11_0_0
   + flow_6_11_0_0 + flow_7_11_0_0 + flow_8_11_0_0 + flow_9_11_0_0
   + flow_10_11_0_0 - flow_11_1_0_0 - flow_11_2_0_0 - flow_11_3_0_0
   - flow_11_4_0_0 - flow_11_5_0_0 - flow_11_6_0_0 - flow_11_7_0_0
   - flow_11_8_0_0 - flow_11_9_0_0 - flow_11_10_0_0 - flow_11_12_0_0
   - flow_11_13_0_0 - flow_11_15_0_0 - flow_11_18_0_0 - flow_11_19_0_0
   + flow_15_11_0_0 = 1
 one_parent_12: edge_3_12_0_0 + edge_4_12_0_0 + edge_6_12_0_0
   + edge_8_12_0_0 + edge_9_12_0_0 + edge_10_12_0_0 + edge_11_12_0_0
   + edge_13_12_0_0 + edge_15_12_0_0 + edge_18_12_0_0 = 1
 consume_one_flow_unit_12: flow_3_12_0_0 + flow_4_12_0_0 + flow_6_12_0_0
   + flow_8_12_0_0 + flow_9_12_0_0 + flow_10_12_0_0 + flow_11_12_0_0
   - flow_12_6_0_0 - flow_12_10_0_0 - flow_12_13_0_0 - flow_12_14_0_0
   + flow_13_12_0_0 + flow_15_12_0_0 + flow_18_12_0_0 = 1
 one_parent_13: edge_3_13_0_0 + edge_4_13_0_0 + edge_5_13_0_0
   + edge_6_13_0_0 + edge_8_13_0_0 + edge_9_13_0_0 + edge_10_13_0_0
   + edge_11_13_0_0 + edge_12_13_0_0 + edge_15_13_0_0 + edge_18_13_0_0 = 1
 consume_one_flow_unit_13: flow_3_13_0_0 + flow_4_13_0_0 + flow_5_13_0_0
   + flow_6_13_0_0 + flow_8_13_0_0 + flow_9_13_0_0 + flow_10_13_0_0
   + flow_11_13_0_0 + flow_12_13_0_0 - flow_13_10_0_0 - flow_13_12_0_0
   - flow_13_14_0_0 - flow_13_15_0_0 - flow_13_16_0_0 - flow_13_18_0_0
   + flow_15_13_0_0 + flow_18_13_0_0 = 1
 one_parent_14: edge_4_14_0_0 + edge_8_14_0_0 + edge_9_14_0_0
   + edge_10_14_0_0 + edge_12_14_0_0 + edge_13_14_0_0 + edge_15_14_0_0
   + edge_16_14_0_0 + edge_18_14_0_0 = 1
 consume_one_flow_unit_14: flow_4_14_0_0 + flow_8_14_0_0 + flow_9_14_0_0
   + flow_10_14_0_0 + flow_12_14_0_0 + flow_13_14_0_0 - flow_14_10_0_0
   - flow_14_16_0_0 - flow_14_18_0_0 + flow_15_14_0_0 + flow_16_14_0_0
   + flow_18_14_0_0 = 1
 one_parent_15: edge_0_15_0_0 + edge_3_15_0_0 + edge_4_15_0_0
   + edge_5_15_0_0 + edge_6_15_0_0 + edge_8_15_0_0 + edge_9_15_0_0
   + edge_10_15_0_0 + edge_11_15_0_0 + edge_13_15_0_0 + edge_18_15_0_0 = 1
 consume_one_flow_unit_15: flow_0_15_0_0 + flow_3_15_0_0 + flow_4_15_0_0
   + flow_5_15_0_0 + flow_6_15_0_0 + flow_8_15_0_0 + flow_9_15_0_0
   + flow_10_15_0_0 + flow_11_15_0_0 + flow_13_15_0_0 - flow_15_1_0_0
   - flow_15_2_0_0 - flow_15_3_0_0 - flow_15_4_0_0 - flow_15_5_0_0
   - flow_15_6_0_0 - flow_15_7_0_0 - flow_15_8_0_0 - flow_15_9_0_0
   - flow_15_10_0_0 - flow_15_11_0_0 - flow_15_12_0_0 - flow_15_13_0_0
   - flow_15_14_0_0 - flow_15_16_0_0 - flow_15_17_0_0 - flow_15_18_0_0
   - flow_15_19_0_0 + flow_18_15_0_0 = 1
 one_parent_16: edge_4_16_0_0 + edge_8_16_0_0 + edge_10_16_0_0
   + edge_13_16_0_0 + edge_14_16_0_0 + edge_15_16_0_0 + edge_17_16_0_0
   + edge_18_16_0_0 = 1
 consume_one_flow_unit_16: flow_4_16_0_0 + flow_8_16_0_0 + flow_10_16_0_0
   + flow_13_16_0_0 + flow_14_16_0_0 + flow_15_16_0_0 - flow_16_14_0_0
   - flow_16_17_0_0 - flow_16_18_0_0 + flow_17_16_0_0 + flow_18_16_0_0 = 1
 one_parent_17: edge_15_17_0_0 + edge_16_17_0_0 + edge_18_17_0_0 = 1
 consume_one_flow_unit_17: flow_15_17_0_0 + flow_16_17_0_0 - flow_17_16_0_0
   + flow_18_17_0_0 = 1
 one_parent_18: edge_3_18_0_0 + edge_4_18_0_0 + edge_6_18_0_0
   + edge_8_18_0_0 + edge_9_18_0_0 + edge_10_18_0_0 + edge_11_18_0_0
   + edge_13_18_0_0 + edge_14_18_0_0 + edge_15_18_0_0 + edge_16_18_0_0 = 1
 consume_one_flow_unit_18: flow_3_18_0_0 + flow_4_18_0_0 + flow_6_18_0_0
   + flow_8_18_0_0 + flow_9_18_0_0 + flow_10_18_0_0 + flow_11_18_0_0
   + flow_13_18_0_0 + flow_14_18_0_0 + flow_15_18_0_0 + flow_16_18_0_0
   - flow_18_3_0_0 - flow_18_4_0_0 - flow_18_6_0_0 - flow_18_7_0_0
   - flow_18_8_0_0 - flow_18_9_0_0 - flow_18_10_0_0 - flow_18_12_0_0
   - flow_18_13_0_0 - flow_18_14_0_0 - flow_18_15_0_0 - flow_18_16_0_0
   - flow_18_17_0_0 - flow_18_19_0_0 = 1
 one_parent_19: edge_3_19_0_0 + edge_4_19_0_0 + edge_6_19_0_0
   + edge_8_19_0_0 + edge_9_19_0_0 + edge_11_19_0_0 + edge_15_19_0_0
   + edge_18_19_0_0 = 1
 consume_one_flow_unit_19: flow_3_19_0_0 + flow_4_19_0_0 + flow_6_19_0_0
   + flow_8_19_0_0 + flow_9_19_0_0 + flow_11_19_0_0 + flow_15_19_0_0
   + flow_18_19_0_0 = 1
 root_flow: flow_0_1_0_0 + flow_0_2_0_0 + flow_0_3_0_0 + flow_0_4_0_0
   + flow_0_6_0_0 + flow_0_7_0_0 + flow_0_8_0_0 + flow_0_9_0_0
   + flow_0_11_0_0 + flow_0_15_0_0 = 19
 inactive_no_flow_0_1_0_0: flow_0_1_0_0 - 1000 edge_0_1_0_0 <= 0
 inactive_no_flow_0_2_0_0: flow_0_2_0_0 - 1000 edge_0_2_0_0 <= 0
 inactive_no_flow_0_3_0_0: flow_0_3_0_0 - 1000 edge_0_3_0_0 <= 0
 inactive_no_flow_0_4_0_0: flow_0_4_0_0 - 1000 edge_0_4_0_0 <= 0
 inactive_no_flow_0_6_0_0: flow_0_6_0_0 - 1000 edge_0_6_0_0 <= 0
 inactive_no_flow_0_7_0_0: flow_0_7_0_0 - 1000 edge_0_7_0_0 <= 0
 inactive_no_flow_0_8_0_0: flow_0_8_0_0 - 1000 edge_0_8_0_0 <= 0
 inactive_no_flow_0_9_0_0: flow_0_9_0_0 - 1000 edge_0_9_0_0 <= 0
 inactive_no_flow_0_11_0_0: flow_0_11_0_0 - 1000 edge_0_11_0_0 <= 0
 inactive_no_flow_0_15_0_0: flow_0_15_0_0 - 1000 edge_0_15_0_0 <= 0
 inactive_no_flow_1_2_0_0: flow_1_2_0_0 - 1000 edge_1_2_0_0 <= 0
 inactive_no_flow_1_3_0_0: flow_1_3_0_0 - 1000 edge_1_3_0_0 <= 0
 inactive_no_flow_2_1_0_0: flow_2_1_0_0 - 1000 edge_2_1_0_0 <= 0
 inactive_no_flow_2_3_0_0: flow_2_3_0_0 - 1000 edge_2_3_0_0 <= 0
 inactive_no_flow_2_4_0_0: flow_2_4_0_0 - 1000 edge_2_4_0_0 <= 0
 inactive_no_flow_2_5_0_0: flow_2_5_0_0 - 1000 edge_2_5_0_0 <= 0
 inactive_no_flow_2_6_0_0: flow_2_6_0_0 - 1000 edge_2_6_0_0 <= 0
 inactive_no_flow_2_8_0_0: flow_2_8_0_0 - 1000 edge_2_8_0_0 <= 0
 inactive_no_flow_2_9_0_0: flow_2_9_0_0 - 1000 edge_2_9_0_0 <= 0
 inactive_no_flow_3_1_0_0: flow_3_1_0_0 - 1000 edge_3_1_0_0 <= 0
 inactive_no_flow_3_2_0_0: flow_3_2_0_0 - 1000 edge_3_2_0_0 <= 0
 inactive_no_flow_3_4_0_0: flow_3_4_0_0 - 1000 edge_3_4_0_0 <= 0
 inactive_no_flow_3_5_0_0: flow_3_5_0_0 - 1000 edge_3_5_0_0 <= 0
 inactive_no_flow_3_6_0_0: flow_3_6_0_0 - 1000 edge_3_6_0_0 <= 0
 inactive_no_flow_3_8_0_0: flow_3_8_0_0 - 1000 edge_3_8_0_0 <= 0
 inactive_no_flow_3_9_0_0: flow_3_9_0_0 - 1000 edge_3_9_0_0 <= 0
 inactive_no_flow_3_11_0_0: flow_3_11_0_0 - 1000 edge_3_11_0_0 <= 0
 inactive_no_flow_3_12_0_0: flow_3_12_0_0 - 1000 edge_3_12_0_0 <= 0
 inactive_no_flow_3_13_0_0: flow_3_13_0_0 - 1000 edge_3_13_0_0 <= 0
 inactive_no_flow_3_15_0_0: flow_3_15_0_0 - 1000 edge_3_15_0_0 <= 0
 inactive_no_flow_3_18_0_0: flow_3_18_0_0 - 1000 edge_3_18_0_0 <= 0
 inactive_no_flow_3_19_0_0: flow_3_19_0_0 - 1000 edge_3_19_0_0 <= 0
 inactive_no_flow_4_1_0_0: flow_4_1_0_0 - 1000 edge_4_1_0_0 <= 0
 inactive_no_flow_4_2_0_0: flow_4_2_0_0 - 1000 edge_4_2_0_0 <= 0
 inactive_no_flow_4_3_0_0: flow_4_3_0_0 - 1000 edge_4_3_0_0 <= 0
 inactive_no_flow_4_5_0_0: flow_4_5_0_0 - 1000 edge_4_5_0_0 <= 0
 inactive_no_flow_4_6_0_0: flow_4_6_0_0 - 1000 edge_4_6_0_0 <= 0
 inactive_no_flow_4_7_0_0: flow_4_7_0_0 - 1000 edge_4_7_0_0 <= 0
 inactive_no_flow_4_8_0_0: flow_4_8_0_0 - 1000 edge_4_8_0_0 <= 0
 inactive_no_flow_4_9_0_0: flow_4_9_0_0 - 1000 edge_4_9_0_0 <= 0
 inactive_no_flow_4_10_0_0: flow_4_10_0_0 - 1000 edge_4_10_0_0 <= 0
 inactive_no_flow_4_11_0_0: flow_4_11_0_0 - 1000 edge_4_11_0_0 <= 0
 inactive_no_flow_4_12_0_0: flow_4_12_0_0 - 1000 edge_4_12_0_0 <= 0
 inactive_no_flow_4_13_0_0: flow_4_13_0_0 - 1000 edge_4_13_0_0 <= 0
 inactive_no_flow_4_14_0_0: flow_4_14_0_0 - 1000 edge_4_14_0_0 <= 0
 inactive_no_flow_4_15_0_0: flow_4_15_0_0 - 1000 edge_4_15_0_0 <= 0
 inactive_no_flow_4_16_0_0: flow_4_16_0_0 - 1000 edge_4_16_0_0 <= 0
 inactive_no_flow_4_18_0_0: flow_4_18_0_0 - 1000 edge_4_18_0_0 <= 0
 inactive_no_flow_4_19_0_0: flow_4_19_0_0 - 1000 edge_4_19_0_0 <= 0
 inactive_no_flow_5_2_0_0: flow_5_2_0_0 - 1000 edge_5_2_0_0 <= 0
 inactive_no_flow_5_3_0_0: flow_5_3_0_0 - 1000 edge_5_3_0_0 <= 0
 inactive_no_flow_5_6_0_0: flow_5_6_0_0 - 1000 edge_5_6_0_0 <= 0
 inactive_no_flow_5_13_0_0: flow_5_13_0_0 - 1000 edge_5_13_0_0 <= 0
 inactive_no_flow_5_15_0_0: flow_5_15_0_0 - 1000 edge_5_15_0_0 <= 0
 inactive_no_flow_6_1_0_0: flow_6_1_0_0 - 1000 edge_6_1_0_0 <= 0
 inactive_no_flow_6_2_0_0: flow_6_2_0_0 - 1000 edge_6_2_0_0 <= 0
 inactive_no_flow_6_3_0_0: flow_6_3_0_0 - 1000 edge_6_3_0_0 <= 0
 inactive_no_flow_6_4_0_0: flow_6_4_0_0 - 1000 edge_6_4_0_0 <= 0
 inactive_no_flow_6_5_0_0: flow_6_5_0_0 - 1000 edge_6_5_0_0 <= 0
 inactive_no_flow_6_8_0_0: flow_6_8_0_0 - 1000 edge_6_8_0_0 <= 0
 inactive_no_flow_6_9_0_0: flow_6_9_0_0 - 1000 edge_6_9_0_0 <= 0
 inactive_no_flow_6_11_0_0: flow_6_11_0_0 - 1000 edge_6_11_0_0 <= 0
 inactive_no_flow_6_12_0_0: flow_6_12_0_0 - 1000 edge_6_12_0_0 <= 0
 inactive_no_flow_6_13_0_0: flow_6_13_0_0 - 1000 edge_6_13_0_0 <= 0
 inactive_no_flow_6_15_0_0: flow_6_15_0_0 - 1000 edge_6_15_0_0 <= 0
 inactive_no_flow_6_18_0_0: flow_6_18_0_0 - 1000 edge_6_18_0_0 <= 0
 inactive_no_flow_6_19_0_0: flow_6_19_0_0 - 1000 edge_6_19_0_0 <= 0
 inactive_no_flow_7_3_0_0: flow_7_3_0_0 - 1000 edge_7_3_0_0 <= 0
 inactive_no_flow_7_4_0_0: flow_7_4_0_0 - 1000 edge_7_4_0_0 <= 0
 inactive_no_flow_7_8_0_0: flow_7_8_0_0 - 1000 edge_7_8_0_0 <= 0
 inactive_no_flow_7_9_0_0: flow_7_9_0_0 - 1000 edge_7_9_0_0 <= 0
 inactive_no_flow_7_11_0_0: flow_7_11_0_0 - 1000 edge_7_11_0_0 <= 0
 inactive_no_flow_8_3_0_0: flow_8_3_0_0 - 1000 edge_8_3_0_0 <= 0
 inactive_no_flow_8_4_0_0: flow_8_4_0_0 - 1000 edge_8_4_0_0 <= 0
 inactive_no_flow_8_5_0_0: flow_8_5_0_0 - 1000 edge_8_5_0_0 <= 0
 inactive_no_flow_8_6_0_0: flow_8_6_0_0 - 1000 edge_8_6_0_0 <= 0
 inactive_no_flow_8_7_0_0: flow_8_7_0_0 - 1000 edge_8_7_0_0 <= 0
 inactive_no_flow_8_9_0_0: flow_8_9_0_0 - 1000 edge_8_9_0_0 <= 0
 inactive_no_flow_8_10_0_0: flow_8_10_0_0 - 1000 edge_8_10_0_0 <= 0
 inactive_no_flow_8_11_0_0: flow_8_11_0_0 - 1000 edge_8_11_0_0 <= 0
 inactive_no_flow_8_12_0_0: flow_8_12_0_0 - 1000 edge_8_12_0_0 <= 0
 inactive_no_flow_8_13_0_0: flow_8_13_0_0 - 1000 edge_8_13_0_0 <= 0
 inactive_no_flow_8_14_0_0: flow_8_14_0_0 - 1000 edge_8_14_0_0 <= 0
 inactive_no_flow_8_15_0_0: flow_8_15_0_0 - 1000 edge_8_15_0_0 <= 0
 inactive_no_flow_8_16_0_0: flow_8_16_0_0 - 1000 edge_8_16_0_0 <= 0
 inactive_no_flow_8_18_0_0: flow_8_18_0_0 - 1000 edge_8_18_0_0 <= 0
 inactive_no_flow_8_19_0_0: flow_8_19_0_0 - 1000 edge_8_19_0_0 <= 0
 inactive_no_flow_9_1_0_0: flow_9_1_0_0 - 1000 edge_9_1_0_0 <= 0
 inactive_no_flow_9_2_0_0: flow_9_2_0_0 - 1000 edge_9_2_0_0 <= 0
 inactive_no_flow_9_3_0_0: flow_9_3_0_0 - 1000 edge_9_3_0_0 <= 0
 inactive_no_flow_9_4_0_0: flow_9_4_0_0 - 1000 edge_9_4_0_0 <= 0
 inactive_no_flow_9_5_0_0: flow_9_5_0_0 - 1000 edge_9_5_0_0 <= 0
 inactive_no_flow_9_6_0_0: flow_9_6_0_0 - 1000 edge_9_6_0_0 <= 0
 inactive_no_flow_9_7_0_0: flow_9_7_0_0 - 1000 edge_9_7_0_0 <= 0
 inactive_no_flow_9_8_0_0: flow_9_8_0_0 - 1000 edge_9_8_0_0 <= 0
 inactive_no_flow_9_10_0_0: flow_9_10_0_0 - 1000 edge_9_10_0_0 <= 0
 inactive_no_flow_9_11_0_0: flow_9_11_0_0 - 1000 edge_9_11_0_0 <= 0
 inactive_no_flow_9_12_0_0: flow_9_12_0_0 - 1000 edge_9_12_0_0 <= 0
 inactive_no_flow_9_13_0_0: flow_9_13_0_0 - 1000 edge_9_13_0_0 <= 0
 inactive_no_flow_9_14_0_0: flow_9_14_0_0 - 1000 edge_9_14_0_0 <= 0
 inactive_no_flow_9_15_0_0: flow_9_15_0_0 - 1000 edge_9_15_0_0 <= 0
 inactive_no_flow_9_18_0_0: flow_9_18_0_0 - 1000 edge_9_18_0_0 <= 0
 inactive_no_flow_9_19_0_0: flow_9_19_0_0 - 1000 edge_9_19_0_0 <= 0
 inactive_no_flow_10_4_0_0: flow_10_4_0_0 - 1000 edge_10_4_0_0 <= 0
 inactive_no_flow_10_8_0_0: flow_10_8_0_0 - 1000 edge_10_8_0_0 <= 0
 inactive_no_flow_10_11_0_0: flow_10_11_0_0 - 1000 edge_10_11_0_0 <= 0
 inactive_no_flow_10_12_0_0: flow_10_12_0_0 - 1000 edge_10_12_0_0 <= 0
 inactive_no_flow_10_13_0_0: flow_10_13_0_0 - 1000 edge_10_13_0_0 <= 0
 inactive_no_flow_10_14_0_0: flow_10_14_0_0 - 1000 edge_10_14_0_0 <= 0
 inactive_no_flow_10_15_0_0: flow_10_15_0_0 - 1000 edge_10_15_0_0 <= 0
 inactive_no_flow_10_16_0_0: flow_10_16_0_0 - 1000 edge_10_16_0_0 <= 0
 inactive_no_flow_10_18_0_0: flow_10_18_0_0 - 1000 edge_10_18_0_0 <= 0
 inactive_no_flow_11_1_0_0: flow_11_1_0_0 - 1000 edge_11_1_0_0 <= 0
 inactive_no_flow_11_2_0_0: flow_11_2_0_0 - 1000 edge_11_2_0_0 <= 0
 inactive_no_flow_11_3_0_0: flow_11_3_0_0 - 1000 edge_11_3_0_0 <= 0
 inactive_no_flow_11_4_0_0: flow_11_4_0_0 - 1000 edge_11_4_0_0 <= 0
 inactive_no_flow_11_5_0_0: flow_11_5_0_0 - 1000 edge_11_5_0_0 <= 0
 inactive_no_flow_11_6_0_0: flow_11_6_0_0 - 1000 edge_11_6_0_0 <= 0
 inactive_no_flow_11_7_0_0: flow_11_7_0_0 - 1000 edge_11_7_0_0 <= 0
 inactive_no_flow_11_8_0_0: flow_11_8_0_0 - 1000 edge_11_8_0_0 <= 0
 inactive_no_flow_11_9_0_0: flow_11_9_0_0 - 1000 edge_11_9_0_0 <= 0
 inactive_no_flow_11_10_0_0: flow_11_10_0_0 - 1000 edge_11_10_0_0 <= 0
 inactive_no_flow_11_12_0_0: flow_11_12_0_0 - 1000 edge_11_12_0_0 <= 0
 inactive_no_flow_11_13_0_0: flow_11_13_0_0 - 1000 edge_11_13_0_0 <= 0
 inactive_no_flow_11_15_0_0: flow_11_15_0_0 - 1000 edge_11_15_0_0 <= 0
 inactive_no_flow_11_18_0_0: flow_11_18_0_0 - 1000 edge_11_18_0_0 <= 0
 inactive_no_flow_11_19_0_0: flow_11_19_0_0 - 1000 edge_11_19_0_0 <= 0
 inactive_no_flow_12_6_0_0: flow_12_6_0_0 - 1000 edge_12_6_0_0 <= 0
 inactive_no_flow_12_10_0_0: flow_12_10_0_0 - 1000 edge_12_10_0_0 <= 0
 inactive_no_flow_12_13_0_0: flow_12_13_0_0 - 1000 edge_12_13_0_0 <= 0
 inactive_no_flow_12_14_0_0: flow_12_14_0_0 - 1000 edge_12_14_0_0 <= 0
 inactive_no_flow_13_10_0_0: flow_13_10_0_0 - 1000 edge_13_10_0_0 <= 0
 inactive_no_flow_13_12_0_0: flow_13_12_0_0 - 1000 edge_13_12_0_0 <= 0
 inactive_no_flow_13_14_0_0: flow_13_14_0_0 - 1000 edge_13_14_0_0 <= 0
 inactive_no_flow_13_15_0_0: flow_13_15_0_0 - 1000 edge_13_15_0_0 <= 0
 inactive_no_flow_13_16_0_0: flow_13_16_0_0 - 1000 edge_13_16_0_0 <= 0
 inactive_no_flow_13_18_0_0: flow_13_18_0_0 - 1000 edge_13_18_0_0 <= 0
 inactive_no_flow_14_10_0_0: flow_14_10_0_0 - 1000 edge_14_10_0_0 <= 0
 inactive_no_flow_14_16_0_0: flow_14_16_0_0 - 1000 edge_14_16_0_0 <= 0
 inactive_no_flow_14_18_0_0: flow_14_18_0_0 - 1000 edge_14_18_0_0 <= 0
 inactive_no_flow_15_1_0_0: flow_15_1_0_0 - 1000 edge_15_1_0_0 <= 0
 inactive_no_flow_15_2_0_0: flow_15_2_0_0 - 1000 edge_15_2_0_0 <= 0
 inactive_no_flow_15_3_0_0: flow_15_3_0_0 - 1000 edge_15_3_0_0 <= 0
 inactive_no_flow_15_4_0_0: flow_15_4_0_0 - 1000 edge_15_4_0_0 <= 0
 inactive_no_flow_15_5_0_0: flow_15_5_0_0 - 1000 edge_15_5_0_0 <= 0
 inactive_no_flow_15_6_0_0: flow_15_6_0_0 - 1000 edge_15_6_0_0 <= 0
 inactive_no_flow_15_7_0_0: flow_15_7_0_0 - 1000 edge_15_7_0_0 <= 0
 inactive_no_flow_15_8_0_0: flow_15_8_0_0 - 1000 edge_15_8_0_0 <= 0
 inactive_no_flow_15_9_0_0: flow_15_9_0_0 - 1000 edge_15_9_0_0 <= 0
 inactive_no_flow_15_10_0_0: flow_15_10_0_0 - 1000 edge_15_10_0_0 <= 0
 inactive_no_flow_15_11_0_0: flow_15_11_0_0 - 1000 edge_15_11_0_0 <= 0
 inactive_no_flow_15_12_0_0: flow_15_12_0_0 - 1000 edge_15_12_0_0 <= 0
 inactive_no_flow_15_13_0_0: flow_15_13_0_0 - 1000 edge_15_13_0_0 <= 0
 inactive_no_flow_15_14_0_0: flow_15_14_0_0 - 1000 edge_15_14_0_0 <= 0
 inactive_no_flow_15_16_0_0: flow_15_16_0_0 - 1000 edge_15_16_0_0 <= 0
 inactive_no_flow_15_17_0_0: flow_15_17_0_0 - 1000 edge_15_17_0_0 <= 0
 inactive_no_flow_15_18_0_0: flow_15_18_0_0 - 1000 edge_15_18_0_0 <= 0
 inactive_no_flow_15_19_0_0: flow_15_19_0_0 - 1000 edge_15_19_0_0 <= 0
 inactive_no_flow_16_14_0_0: flow_16_14_0_0 - 1000 edge_16_14_0_0 <= 0
 inactive_no_flow_16_17_0_0: flow_16_17_0_0 - 1000 edge_16_17_0_0 <= 0
 inactive_no_flow_16_18_0_0: flow_16_18_0_0 - 1000 edge_16_18_0_0 <= 0
 inactive_no_flow_17_16_0_0: flow_17_16_0_0 - 1000 edge_17_16_0_0 <= 0
 inactive_no_flow_18_3_0_0: flow_18_3_0_0 - 1000 edge_18_3_0_0 <= 0
 inactive_no_flow_18_4_0_0: flow_18_4_0_0 - 1000 edge_18_4_0_0 <= 0
 inactive_no_flow_18_6_0_0: flow_18_6_0_0 - 1000 edge_18_6_0_0 <= 0
 inactive_no_flow_18_7_0_0: flow_18_7_0_0 - 1000 edge_18_7_0_0 <= 0
 inactive_no_flow_18_8_0_0: flow_18_8_0_0 - 1000 edge_18_8_0_0 <= 0
 inactive_no_flow_18_9_0_0: flow_18_9_0_0 - 1000 edge_18_9_0_0 <= 0
 inactive_no_flow_18_10_0_0: flow_18_10_0_0 - 1000 edge_18_10_0_0 <= 0
 inactive_no_flow_18_12_0_0: flow_18_12_0_0 - 1000 edge_18_12_0_0 <= 0
 inactive_no_flow_18_13_0_0: flow_18_13_0_0 - 1000 edge_18_13_0_0 <= 0
 inactive_no_flow_18_14_0_0: flow_18_14_0_0 - 1000 edge_18_14_0_0 <= 0
 inactive_no_flow_18_15_0_0: flow_18_15_0_0 - 1000 edge_18_15_0_0 <= 0
 inactive_no_flow_18_16_0_0: flow_18_16_0_0 - 1000 edge_18_16_0_0 <= 0
 inactive_no_flow_18_17_0_0: flow_18_17_0_0 - 1000 edge_18_17_0_0 <= 0
 inactive_no_flow_18_19_0_0: flow_18_19_0_0 - 1000 edge_18_19_0_0 <= 0
Bounds
Binaries
 edge_0_1_0_0 edge_0_2_0_0 edge_0_3_0_0 edge_0_4_0_0 edge_0_6_0_0
 edge_0_7_0_0 edge_0_8_0_0 edge_0_9_0_0 edge_0_11_0_0 edge_0_15_0_0
 edge_1_2_0_0 edge_1_3_0_0 edge_2_1_0_0 edge_2_3_0_0 edge_2_4_0_0
 edge_2_5_0_0 edge_2_6_0_0 edge_2_8_0_0 edge_2_9_0_0 edge_3_1_0_0
 edge_3_2_0_0 edge_3_4_0_0 edge_3_5_0_0 edge_3_6_0_0 edge_3_8_0_0
 edge_3_9_0_0 edge_3_11_0_0 edge_3_12_0_0 edge_3_13_0_0 edge_3_15_0_0
 edge_3_18_0_0 edge_3_19_0_0 edge_4_1_0_0 edge_4_2_0_0 edge_4_3_0_0
 edge_4_5_0_0 edge_4_6_0_0 edge_4_7_0_0 edge_4_8_0_0 edge_4_9_0_0
 edge_4_10_0_0 edge_4_11_0_0 edge_4_12_0_0 edge_4_13_0_0 edge_4_14_0_0
 edge_4_15_0_0 edge_4_16_0_0 edge_4_18_0_0 edge_4_19_0_0 edge_5_2_0_0
 edge_5_3_0_0 edge_5_6_0_0 edge_5_13_0_0 edge_5_15_0_0 edge_6_1_0_0
 edge_6_2_0_0 edge_6_3_0_0 edge_6_4_0_0 edge_6_5_0_0 edge_6_8_0_0
 edge_6_9_0_0 edge_6_11_0_0 edge_6_12_0_0 edge_6_13_0_0 edge_6_15_0_0
 edge_6_18_0_0 edge_6_19_0_0 edge_7_3_0_0 edge_7_4_0_0 edge_7_8_0_0
 edge_7_9_0_0 edge_7_11_0_0 edge_8_3_0_0 edge_8_4_0_0 edge_8_5_0_0
 edge_8_6_0_0 edge_8_7_0_0 edge_8_9_0_0 edge_8_10_0_0 edge_8_11_0_0
 edge_8_12_0_0 edge_8_13_0_0 edge_8_14_0_0 edge_8_15_0_0 edge_8_16_0_0
 edge_8_18_0_0 edge_8_19_0_0 edge_9_1_0_0 edge_9_2_0_0 edge_9_3_0_0
 edge_9_4_0_0 edge_9_5_0_0 edge_9_6_0_0 edge_9_7_0_0 edge_9_8_0_0
 edge_9_10_0_0 edge_9_11_0_0 edge_9_12_0_0 edge_9_13_0_0 edge_9_14_0_0
 edge_9_15_0_0 edge_9_18_0_0 edge_9_19_0_0 edge_10_4_0_0 edge_10_8_0_0
 edge_10_11_0_0 edge_10_12_0_0 edge_10_13_0_0 edge_10_14_0_0 edge_10_15_0_0
 edge_10_16_0_0 edge_10_18_0_0 edge_11_1_0_0 edge_11_2_0_0 edge_11_3_0_0
 edge_11_4_0_0 edge_11_5_0_0 edge_11_6_0_0 edge_11_7_0_0 edge_11_8_0_0
 edge_11_9_0_0 edge_11_10_0_0 edge_11_12_0_0 edge_11_13_0_0 edge_11_15_0_0
 edge_11_18_0_0 edge_11_19_0_0 edge_12_6_0_0 edge_12_10_0_0 edge_12_13_0_0
 edge_12_14_0_0 edge_13_10_0_0 edge_13_12_0_0 edge_13_14_0_0 edge_13_15_0_0
 edge_13_16_0_0 edge_13_18_0_0 edge_14_10_0_0 edge_14_16_0_0 edge_14_18_0_0
 edge_15_1_0_0 edge_15_2_0_0 edge_15_3_0_0 edge_15_4_0_0 edge_15_5_0_0
 edge_15_6_0_0 edge_15_7_0_0 edge_15_8_0_0 edge_15_9_0_0 edge_15_10_0_0
 edge_15_11_0_0 edge_15_12_0_0 edge_15_13_0_0 edge_15_14_0_0 edge_15_16_0_0
 edge_15_17_0_0 edge_15_18_0_0 edge_15_19_0_0 edge_16_14_0_0 edge_16_17_0_0
 edge_16_18_0_0 edge_17_16_0_0 edge_18_3_0_0 edge_18_4_0_0 edge_18_6_0_0
 edge_18_7_0_0 edge_18_8_0_0 edge_18_9_0_0 edge_18_10_0_0 edge_18_12_0_0
 edge_18_13_0_0 edge_18_14_0_0 edge_18_15_0_0 edge_18_16_0_0 edge_18_17_0_0
 edge_18_19_0_0
End
